Route #1: 20 29 23 24 25 26 30 21 22 28 27 42 44 43 46 53 45 52 48 47 50 49 70 51 41 55
Route #2: 35 31 32 34 60 61 58 59 63 64 62 65 66 67 69 37 38 40 68 39 57 56 54
Route #3: 11 1
Route #4: 18 5 3 4 9 7 8 10 6 71 12 17 16 13 2 15 19 14 33 36
Cost 246